* Source:     Pyomo MPS Writer
* Format:     Free MPS
*
NAME unknown
OBJSENSE
 MIN
ROWS
 N  obj
 E  c_e_demanda(1)_
 E  c_e_demanda(2)_
 E  c_e_demanda(3)_
 E  c_e_demanda(4)_
 E  c_e_demanda(5)_
 E  c_e_demanda(6)_
 G  c_l_demanda_reserva(1)_
 G  c_l_demanda_reserva(2)_
 G  c_l_demanda_reserva(3)_
 G  c_l_demanda_reserva(4)_
 G  c_l_demanda_reserva(5)_
 G  c_l_demanda_reserva(6)_
 E  c_e_logical_rule(1_1)_
 E  c_e_logical_rule(1_2)_
 E  c_e_logical_rule(1_3)_
 E  c_e_logical_rule(1_4)_
 E  c_e_logical_rule(1_5)_
 E  c_e_logical_rule(1_6)_
 E  c_e_logical_rule(2_1)_
 E  c_e_logical_rule(2_2)_
 E  c_e_logical_rule(2_3)_
 E  c_e_logical_rule(2_4)_
 E  c_e_logical_rule(2_5)_
 E  c_e_logical_rule(2_6)_
 E  c_e_logical_rule(3_1)_
 E  c_e_logical_rule(3_2)_
 E  c_e_logical_rule(3_3)_
 E  c_e_logical_rule(3_4)_
 E  c_e_logical_rule(3_5)_
 E  c_e_logical_rule(3_6)_
 L  c_u_rampas_subida(1_1)_
 L  c_u_rampas_subida(1_2)_
 L  c_u_rampas_subida(1_3)_
 L  c_u_rampas_subida(1_4)_
 L  c_u_rampas_subida(1_5)_
 L  c_u_rampas_subida(1_6)_
 L  c_u_rampas_subida(2_1)_
 L  c_u_rampas_subida(2_2)_
 L  c_u_rampas_subida(2_3)_
 L  c_u_rampas_subida(2_4)_
 L  c_u_rampas_subida(2_5)_
 L  c_u_rampas_subida(2_6)_
 L  c_u_rampas_subida(3_1)_
 L  c_u_rampas_subida(3_2)_
 L  c_u_rampas_subida(3_3)_
 L  c_u_rampas_subida(3_4)_
 L  c_u_rampas_subida(3_5)_
 L  c_u_rampas_subida(3_6)_
 L  c_u_rampas_bajada(1_1)_
 L  c_u_rampas_bajada(1_2)_
 L  c_u_rampas_bajada(1_3)_
 L  c_u_rampas_bajada(1_4)_
 L  c_u_rampas_bajada(1_5)_
 L  c_u_rampas_bajada(1_6)_
 L  c_u_rampas_bajada(2_1)_
 L  c_u_rampas_bajada(2_2)_
 L  c_u_rampas_bajada(2_3)_
 L  c_u_rampas_bajada(2_4)_
 L  c_u_rampas_bajada(2_5)_
 L  c_u_rampas_bajada(2_6)_
 L  c_u_rampas_bajada(3_1)_
 L  c_u_rampas_bajada(3_2)_
 L  c_u_rampas_bajada(3_3)_
 L  c_u_rampas_bajada(3_4)_
 L  c_u_rampas_bajada(3_5)_
 L  c_u_rampas_bajada(3_6)_
 L  c_u_tiempo_min_encendido(1_3)_
 L  c_u_tiempo_min_encendido(1_4)_
 L  c_u_tiempo_min_encendido(1_5)_
 L  c_u_tiempo_min_encendido(1_6)_
 G  c_l_tiempo_min_encendido(2_1)_
 L  c_u_tiempo_min_encendido(2_2)_
 L  c_u_tiempo_min_encendido(2_3)_
 L  c_u_tiempo_min_encendido(2_4)_
 L  c_u_tiempo_min_encendido(2_5)_
 L  c_u_tiempo_min_encendido(2_6)_
 G  c_l_tiempo_min_encendido(3_1)_
 G  c_l_tiempo_min_encendido(3_2)_
 G  c_l_tiempo_min_encendido(3_3)_
 G  c_l_tiempo_min_encendido(3_4)_
 G  c_l_tiempo_min_encendido(3_5)_
 G  c_l_tiempo_min_encendido(3_6)_
 L  c_u_tiempo_min_apagado(1_1)_
 L  c_u_tiempo_min_apagado(1_2)_
 L  c_u_tiempo_min_apagado(1_3)_
 L  c_u_tiempo_min_apagado(1_4)_
 L  c_u_tiempo_min_apagado(1_5)_
 L  c_u_tiempo_min_apagado(1_6)_
 L  c_u_tiempo_min_apagado(2_1)_
 L  c_u_tiempo_min_apagado(2_2)_
 L  c_u_tiempo_min_apagado(2_3)_
 L  c_u_tiempo_min_apagado(2_4)_
 L  c_u_tiempo_min_apagado(2_5)_
 L  c_u_tiempo_min_apagado(2_6)_
 L  c_u_tiempo_min_apagado(3_1)_
 L  c_u_tiempo_min_apagado(3_2)_
 L  c_u_tiempo_min_apagado(3_3)_
 L  c_u_tiempo_min_apagado(3_4)_
 L  c_u_tiempo_min_apagado(3_5)_
 L  c_u_tiempo_min_apagado(3_6)_
 L  c_u_limite_gen_uno(1_1)_
 L  c_u_limite_gen_uno(1_2)_
 L  c_u_limite_gen_uno(1_3)_
 L  c_u_limite_gen_uno(1_4)_
 L  c_u_limite_gen_uno(1_5)_
 L  c_u_limite_gen_uno(1_6)_
 L  c_u_limite_gen_uno(2_1)_
 L  c_u_limite_gen_uno(2_2)_
 L  c_u_limite_gen_uno(2_3)_
 L  c_u_limite_gen_uno(2_4)_
 L  c_u_limite_gen_uno(2_5)_
 L  c_u_limite_gen_uno(2_6)_
 L  c_u_limite_gen_uno(3_1)_
 L  c_u_limite_gen_uno(3_2)_
 L  c_u_limite_gen_uno(3_3)_
 L  c_u_limite_gen_uno(3_4)_
 L  c_u_limite_gen_uno(3_5)_
 L  c_u_limite_gen_uno(3_6)_
 L  c_u_limite_gen_dos(1_1)_
 L  c_u_limite_gen_dos(1_2)_
 L  c_u_limite_gen_dos(1_3)_
 L  c_u_limite_gen_dos(1_4)_
 L  c_u_limite_gen_dos(1_5)_
 L  c_u_limite_gen_dos(1_6)_
 L  c_u_limite_gen_dos(2_1)_
 L  c_u_limite_gen_dos(2_2)_
 L  c_u_limite_gen_dos(2_3)_
 L  c_u_limite_gen_dos(2_4)_
 L  c_u_limite_gen_dos(2_5)_
 L  c_u_limite_gen_dos(2_6)_
 L  c_u_limite_gen_dos(3_1)_
 L  c_u_limite_gen_dos(3_2)_
 L  c_u_limite_gen_dos(3_3)_
 L  c_u_limite_gen_dos(3_4)_
 L  c_u_limite_gen_dos(3_5)_
 L  c_u_limite_gen_dos(3_6)_
 L  c_u_Limite_gen_tres(1_1)_
 L  c_u_Limite_gen_tres(1_2)_
 L  c_u_Limite_gen_tres(1_3)_
 L  c_u_Limite_gen_tres(1_4)_
 L  c_u_Limite_gen_tres(1_5)_
 L  c_u_Limite_gen_tres(1_6)_
 L  c_u_Limite_gen_tres(2_1)_
 L  c_u_Limite_gen_tres(2_2)_
 L  c_u_Limite_gen_tres(2_3)_
 L  c_u_Limite_gen_tres(2_4)_
 L  c_u_Limite_gen_tres(2_5)_
 L  c_u_Limite_gen_tres(2_6)_
 L  c_u_Limite_gen_tres(3_1)_
 L  c_u_Limite_gen_tres(3_2)_
 L  c_u_Limite_gen_tres(3_3)_
 L  c_u_Limite_gen_tres(3_4)_
 L  c_u_Limite_gen_tres(3_5)_
 L  c_u_Limite_gen_tres(3_6)_
 L  c_u_limite_arranque(1_1)_
 L  c_u_limite_arranque(1_2)_
 L  c_u_limite_arranque(1_3)_
 L  c_u_limite_arranque(1_4)_
 L  c_u_limite_arranque(1_5)_
 L  c_u_limite_arranque(1_6)_
 L  c_u_limite_arranque(2_1)_
 L  c_u_limite_arranque(2_2)_
 L  c_u_limite_arranque(2_3)_
 L  c_u_limite_arranque(2_4)_
 L  c_u_limite_arranque(2_5)_
 L  c_u_limite_arranque(2_6)_
 L  c_u_limite_arranque(3_1)_
 L  c_u_limite_arranque(3_2)_
 L  c_u_limite_arranque(3_3)_
 L  c_u_limite_arranque(3_4)_
 L  c_u_limite_arranque(3_5)_
 L  c_u_limite_arranque(3_6)_
 L  c_u_limite_apagado(1_1)_
 L  c_u_limite_apagado(1_2)_
 L  c_u_limite_apagado(1_3)_
 L  c_u_limite_apagado(1_4)_
 L  c_u_limite_apagado(1_5)_
 L  c_u_limite_apagado(2_1)_
 L  c_u_limite_apagado(2_2)_
 L  c_u_limite_apagado(2_3)_
 L  c_u_limite_apagado(2_4)_
 L  c_u_limite_apagado(2_5)_
 L  c_u_limite_apagado(3_1)_
 L  c_u_limite_apagado(3_2)_
 L  c_u_limite_apagado(3_3)_
 L  c_u_limite_apagado(3_4)_
 L  c_u_limite_apagado(3_5)_
COLUMNS
     p(1_1) obj 5
     p(1_1) c_e_demanda(1)_ 1
     p(1_1) c_u_rampas_subida(1_1)_ 1
     p(1_1) c_u_rampas_subida(1_2)_ -1
     p(1_1) c_u_rampas_bajada(1_1)_ -1
     p(1_1) c_u_rampas_bajada(1_2)_ 1
     p(1_1) c_u_limite_gen_uno(1_1)_ -1
     p(1_1) c_u_limite_gen_dos(1_1)_ 1
     p(1_1) c_u_limite_arranque(1_2)_ -1
     p(1_2) obj 5
     p(1_2) c_e_demanda(2)_ 1
     p(1_2) c_u_rampas_subida(1_2)_ 1
     p(1_2) c_u_rampas_subida(1_3)_ -1
     p(1_2) c_u_rampas_bajada(1_2)_ -1
     p(1_2) c_u_rampas_bajada(1_3)_ 1
     p(1_2) c_u_limite_gen_uno(1_2)_ -1
     p(1_2) c_u_limite_gen_dos(1_2)_ 1
     p(1_2) c_u_limite_arranque(1_3)_ -1
     p(1_3) obj 5
     p(1_3) c_e_demanda(3)_ 1
     p(1_3) c_u_rampas_subida(1_3)_ 1
     p(1_3) c_u_rampas_subida(1_4)_ -1
     p(1_3) c_u_rampas_bajada(1_3)_ -1
     p(1_3) c_u_rampas_bajada(1_4)_ 1
     p(1_3) c_u_limite_gen_uno(1_3)_ -1
     p(1_3) c_u_limite_gen_dos(1_3)_ 1
     p(1_3) c_u_limite_arranque(1_4)_ -1
     p(1_4) obj 5
     p(1_4) c_e_demanda(4)_ 1
     p(1_4) c_u_rampas_subida(1_4)_ 1
     p(1_4) c_u_rampas_subida(1_5)_ -1
     p(1_4) c_u_rampas_bajada(1_4)_ -1
     p(1_4) c_u_rampas_bajada(1_5)_ 1
     p(1_4) c_u_limite_gen_uno(1_4)_ -1
     p(1_4) c_u_limite_gen_dos(1_4)_ 1
     p(1_4) c_u_limite_arranque(1_5)_ -1
     p(1_5) obj 5
     p(1_5) c_e_demanda(5)_ 1
     p(1_5) c_u_rampas_subida(1_5)_ 1
     p(1_5) c_u_rampas_subida(1_6)_ -1
     p(1_5) c_u_rampas_bajada(1_5)_ -1
     p(1_5) c_u_rampas_bajada(1_6)_ 1
     p(1_5) c_u_limite_gen_uno(1_5)_ -1
     p(1_5) c_u_limite_gen_dos(1_5)_ 1
     p(1_5) c_u_limite_arranque(1_6)_ -1
     p(1_6) obj 5
     p(1_6) c_e_demanda(6)_ 1
     p(1_6) c_u_rampas_subida(1_6)_ 1
     p(1_6) c_u_rampas_bajada(1_6)_ -1
     p(1_6) c_u_limite_gen_uno(1_6)_ -1
     p(1_6) c_u_limite_gen_dos(1_6)_ 1
     p(2_1) obj 15
     p(2_1) c_e_demanda(1)_ 1
     p(2_1) c_u_rampas_subida(2_1)_ 1
     p(2_1) c_u_rampas_subida(2_2)_ -1
     p(2_1) c_u_rampas_bajada(2_1)_ -1
     p(2_1) c_u_rampas_bajada(2_2)_ 1
     p(2_1) c_u_limite_gen_uno(2_1)_ -1
     p(2_1) c_u_limite_gen_dos(2_1)_ 1
     p(2_1) c_u_limite_arranque(2_2)_ -1
     p(2_2) obj 15
     p(2_2) c_e_demanda(2)_ 1
     p(2_2) c_u_rampas_subida(2_2)_ 1
     p(2_2) c_u_rampas_subida(2_3)_ -1
     p(2_2) c_u_rampas_bajada(2_2)_ -1
     p(2_2) c_u_rampas_bajada(2_3)_ 1
     p(2_2) c_u_limite_gen_uno(2_2)_ -1
     p(2_2) c_u_limite_gen_dos(2_2)_ 1
     p(2_2) c_u_limite_arranque(2_3)_ -1
     p(2_3) obj 15
     p(2_3) c_e_demanda(3)_ 1
     p(2_3) c_u_rampas_subida(2_3)_ 1
     p(2_3) c_u_rampas_subida(2_4)_ -1
     p(2_3) c_u_rampas_bajada(2_3)_ -1
     p(2_3) c_u_rampas_bajada(2_4)_ 1
     p(2_3) c_u_limite_gen_uno(2_3)_ -1
     p(2_3) c_u_limite_gen_dos(2_3)_ 1
     p(2_3) c_u_limite_arranque(2_4)_ -1
     p(2_4) obj 15
     p(2_4) c_e_demanda(4)_ 1
     p(2_4) c_u_rampas_subida(2_4)_ 1
     p(2_4) c_u_rampas_subida(2_5)_ -1
     p(2_4) c_u_rampas_bajada(2_4)_ -1
     p(2_4) c_u_rampas_bajada(2_5)_ 1
     p(2_4) c_u_limite_gen_uno(2_4)_ -1
     p(2_4) c_u_limite_gen_dos(2_4)_ 1
     p(2_4) c_u_limite_arranque(2_5)_ -1
     p(2_5) obj 15
     p(2_5) c_e_demanda(5)_ 1
     p(2_5) c_u_rampas_subida(2_5)_ 1
     p(2_5) c_u_rampas_subida(2_6)_ -1
     p(2_5) c_u_rampas_bajada(2_5)_ -1
     p(2_5) c_u_rampas_bajada(2_6)_ 1
     p(2_5) c_u_limite_gen_uno(2_5)_ -1
     p(2_5) c_u_limite_gen_dos(2_5)_ 1
     p(2_5) c_u_limite_arranque(2_6)_ -1
     p(2_6) obj 15
     p(2_6) c_e_demanda(6)_ 1
     p(2_6) c_u_rampas_subida(2_6)_ 1
     p(2_6) c_u_rampas_bajada(2_6)_ -1
     p(2_6) c_u_limite_gen_uno(2_6)_ -1
     p(2_6) c_u_limite_gen_dos(2_6)_ 1
     p(3_1) obj 30
     p(3_1) c_e_demanda(1)_ 1
     p(3_1) c_u_rampas_subida(3_1)_ 1
     p(3_1) c_u_rampas_subida(3_2)_ -1
     p(3_1) c_u_rampas_bajada(3_1)_ -1
     p(3_1) c_u_rampas_bajada(3_2)_ 1
     p(3_1) c_u_limite_gen_uno(3_1)_ -1
     p(3_1) c_u_limite_gen_dos(3_1)_ 1
     p(3_1) c_u_limite_arranque(3_2)_ -1
     p(3_2) obj 30
     p(3_2) c_e_demanda(2)_ 1
     p(3_2) c_u_rampas_subida(3_2)_ 1
     p(3_2) c_u_rampas_subida(3_3)_ -1
     p(3_2) c_u_rampas_bajada(3_2)_ -1
     p(3_2) c_u_rampas_bajada(3_3)_ 1
     p(3_2) c_u_limite_gen_uno(3_2)_ -1
     p(3_2) c_u_limite_gen_dos(3_2)_ 1
     p(3_2) c_u_limite_arranque(3_3)_ -1
     p(3_3) obj 30
     p(3_3) c_e_demanda(3)_ 1
     p(3_3) c_u_rampas_subida(3_3)_ 1
     p(3_3) c_u_rampas_subida(3_4)_ -1
     p(3_3) c_u_rampas_bajada(3_3)_ -1
     p(3_3) c_u_rampas_bajada(3_4)_ 1
     p(3_3) c_u_limite_gen_uno(3_3)_ -1
     p(3_3) c_u_limite_gen_dos(3_3)_ 1
     p(3_3) c_u_limite_arranque(3_4)_ -1
     p(3_4) obj 30
     p(3_4) c_e_demanda(4)_ 1
     p(3_4) c_u_rampas_subida(3_4)_ 1
     p(3_4) c_u_rampas_subida(3_5)_ -1
     p(3_4) c_u_rampas_bajada(3_4)_ -1
     p(3_4) c_u_rampas_bajada(3_5)_ 1
     p(3_4) c_u_limite_gen_uno(3_4)_ -1
     p(3_4) c_u_limite_gen_dos(3_4)_ 1
     p(3_4) c_u_limite_arranque(3_5)_ -1
     p(3_5) obj 30
     p(3_5) c_e_demanda(5)_ 1
     p(3_5) c_u_rampas_subida(3_5)_ 1
     p(3_5) c_u_rampas_subida(3_6)_ -1
     p(3_5) c_u_rampas_bajada(3_5)_ -1
     p(3_5) c_u_rampas_bajada(3_6)_ 1
     p(3_5) c_u_limite_gen_uno(3_5)_ -1
     p(3_5) c_u_limite_gen_dos(3_5)_ 1
     p(3_5) c_u_limite_arranque(3_6)_ -1
     p(3_6) obj 30
     p(3_6) c_e_demanda(6)_ 1
     p(3_6) c_u_rampas_subida(3_6)_ 1
     p(3_6) c_u_rampas_bajada(3_6)_ -1
     p(3_6) c_u_limite_gen_uno(3_6)_ -1
     p(3_6) c_u_limite_gen_dos(3_6)_ 1
     pb(1_1) c_l_demanda_reserva(1)_ 1
     pb(1_1) c_u_limite_gen_dos(1_1)_ -1
     pb(1_1) c_u_Limite_gen_tres(1_1)_ 1
     pb(1_1) c_u_limite_arranque(1_1)_ 1
     pb(1_1) c_u_limite_apagado(1_1)_ 1
     pb(1_2) c_l_demanda_reserva(2)_ 1
     pb(1_2) c_u_limite_gen_dos(1_2)_ -1
     pb(1_2) c_u_Limite_gen_tres(1_2)_ 1
     pb(1_2) c_u_limite_arranque(1_2)_ 1
     pb(1_2) c_u_limite_apagado(1_2)_ 1
     pb(1_3) c_l_demanda_reserva(3)_ 1
     pb(1_3) c_u_limite_gen_dos(1_3)_ -1
     pb(1_3) c_u_Limite_gen_tres(1_3)_ 1
     pb(1_3) c_u_limite_arranque(1_3)_ 1
     pb(1_3) c_u_limite_apagado(1_3)_ 1
     pb(1_4) c_l_demanda_reserva(4)_ 1
     pb(1_4) c_u_limite_gen_dos(1_4)_ -1
     pb(1_4) c_u_Limite_gen_tres(1_4)_ 1
     pb(1_4) c_u_limite_arranque(1_4)_ 1
     pb(1_4) c_u_limite_apagado(1_4)_ 1
     pb(1_5) c_l_demanda_reserva(5)_ 1
     pb(1_5) c_u_limite_gen_dos(1_5)_ -1
     pb(1_5) c_u_Limite_gen_tres(1_5)_ 1
     pb(1_5) c_u_limite_arranque(1_5)_ 1
     pb(1_5) c_u_limite_apagado(1_5)_ 1
     pb(1_6) c_l_demanda_reserva(6)_ 1
     pb(1_6) c_u_limite_gen_dos(1_6)_ -1
     pb(1_6) c_u_Limite_gen_tres(1_6)_ 1
     pb(1_6) c_u_limite_arranque(1_6)_ 1
     pb(2_1) c_l_demanda_reserva(1)_ 1
     pb(2_1) c_u_limite_gen_dos(2_1)_ -1
     pb(2_1) c_u_Limite_gen_tres(2_1)_ 1
     pb(2_1) c_u_limite_arranque(2_1)_ 1
     pb(2_1) c_u_limite_apagado(2_1)_ 1
     pb(2_2) c_l_demanda_reserva(2)_ 1
     pb(2_2) c_u_limite_gen_dos(2_2)_ -1
     pb(2_2) c_u_Limite_gen_tres(2_2)_ 1
     pb(2_2) c_u_limite_arranque(2_2)_ 1
     pb(2_2) c_u_limite_apagado(2_2)_ 1
     pb(2_3) c_l_demanda_reserva(3)_ 1
     pb(2_3) c_u_limite_gen_dos(2_3)_ -1
     pb(2_3) c_u_Limite_gen_tres(2_3)_ 1
     pb(2_3) c_u_limite_arranque(2_3)_ 1
     pb(2_3) c_u_limite_apagado(2_3)_ 1
     pb(2_4) c_l_demanda_reserva(4)_ 1
     pb(2_4) c_u_limite_gen_dos(2_4)_ -1
     pb(2_4) c_u_Limite_gen_tres(2_4)_ 1
     pb(2_4) c_u_limite_arranque(2_4)_ 1
     pb(2_4) c_u_limite_apagado(2_4)_ 1
     pb(2_5) c_l_demanda_reserva(5)_ 1
     pb(2_5) c_u_limite_gen_dos(2_5)_ -1
     pb(2_5) c_u_Limite_gen_tres(2_5)_ 1
     pb(2_5) c_u_limite_arranque(2_5)_ 1
     pb(2_5) c_u_limite_apagado(2_5)_ 1
     pb(2_6) c_l_demanda_reserva(6)_ 1
     pb(2_6) c_u_limite_gen_dos(2_6)_ -1
     pb(2_6) c_u_Limite_gen_tres(2_6)_ 1
     pb(2_6) c_u_limite_arranque(2_6)_ 1
     pb(3_1) c_l_demanda_reserva(1)_ 1
     pb(3_1) c_u_limite_gen_dos(3_1)_ -1
     pb(3_1) c_u_Limite_gen_tres(3_1)_ 1
     pb(3_1) c_u_limite_arranque(3_1)_ 1
     pb(3_1) c_u_limite_apagado(3_1)_ 1
     pb(3_2) c_l_demanda_reserva(2)_ 1
     pb(3_2) c_u_limite_gen_dos(3_2)_ -1
     pb(3_2) c_u_Limite_gen_tres(3_2)_ 1
     pb(3_2) c_u_limite_arranque(3_2)_ 1
     pb(3_2) c_u_limite_apagado(3_2)_ 1
     pb(3_3) c_l_demanda_reserva(3)_ 1
     pb(3_3) c_u_limite_gen_dos(3_3)_ -1
     pb(3_3) c_u_Limite_gen_tres(3_3)_ 1
     pb(3_3) c_u_limite_arranque(3_3)_ 1
     pb(3_3) c_u_limite_apagado(3_3)_ 1
     pb(3_4) c_l_demanda_reserva(4)_ 1
     pb(3_4) c_u_limite_gen_dos(3_4)_ -1
     pb(3_4) c_u_Limite_gen_tres(3_4)_ 1
     pb(3_4) c_u_limite_arranque(3_4)_ 1
     pb(3_4) c_u_limite_apagado(3_4)_ 1
     pb(3_5) c_l_demanda_reserva(5)_ 1
     pb(3_5) c_u_limite_gen_dos(3_5)_ -1
     pb(3_5) c_u_Limite_gen_tres(3_5)_ 1
     pb(3_5) c_u_limite_arranque(3_5)_ 1
     pb(3_5) c_u_limite_apagado(3_5)_ 1
     pb(3_6) c_l_demanda_reserva(6)_ 1
     pb(3_6) c_u_limite_gen_dos(3_6)_ -1
     pb(3_6) c_u_Limite_gen_tres(3_6)_ 1
     pb(3_6) c_u_limite_arranque(3_6)_ 1
     v(1_1) c_e_logical_rule(1_1)_ -1
     v(1_1) c_e_logical_rule(1_2)_ 1
     v(1_1) c_u_rampas_subida(1_2)_ -50
     v(1_1) c_u_rampas_bajada(1_1)_ -30
     v(1_1) c_u_tiempo_min_apagado(1_1)_ 1
     v(1_1) c_u_limite_gen_uno(1_1)_ 80
     v(1_1) c_u_Limite_gen_tres(1_1)_ -300
     v(1_1) c_u_limite_arranque(1_2)_ -50
     v(1_1) c_u_limite_apagado(1_1)_ -300
     v(1_2) c_e_logical_rule(1_2)_ -1
     v(1_2) c_e_logical_rule(1_3)_ 1
     v(1_2) c_u_rampas_subida(1_3)_ -50
     v(1_2) c_u_rampas_bajada(1_2)_ -30
     v(1_2) c_u_tiempo_min_apagado(1_2)_ 1
     v(1_2) c_u_limite_gen_uno(1_2)_ 80
     v(1_2) c_u_Limite_gen_tres(1_2)_ -300
     v(1_2) c_u_limite_arranque(1_3)_ -50
     v(1_2) c_u_limite_apagado(1_2)_ -300
     v(1_3) c_e_logical_rule(1_3)_ -1
     v(1_3) c_e_logical_rule(1_4)_ 1
     v(1_3) c_u_rampas_subida(1_4)_ -50
     v(1_3) c_u_rampas_bajada(1_3)_ -30
     v(1_3) c_u_tiempo_min_encendido(1_3)_ -1
     v(1_3) c_u_tiempo_min_apagado(1_3)_ 1
     v(1_3) c_u_limite_gen_uno(1_3)_ 80
     v(1_3) c_u_Limite_gen_tres(1_3)_ -300
     v(1_3) c_u_limite_arranque(1_4)_ -50
     v(1_3) c_u_limite_apagado(1_3)_ -300
     v(1_4) c_e_logical_rule(1_4)_ -1
     v(1_4) c_e_logical_rule(1_5)_ 1
     v(1_4) c_u_rampas_subida(1_5)_ -50
     v(1_4) c_u_rampas_bajada(1_4)_ -30
     v(1_4) c_u_tiempo_min_encendido(1_4)_ -1
     v(1_4) c_u_tiempo_min_apagado(1_4)_ 1
     v(1_4) c_u_limite_gen_uno(1_4)_ 80
     v(1_4) c_u_Limite_gen_tres(1_4)_ -300
     v(1_4) c_u_limite_arranque(1_5)_ -50
     v(1_4) c_u_limite_apagado(1_4)_ -300
     v(1_5) c_e_logical_rule(1_5)_ -1
     v(1_5) c_e_logical_rule(1_6)_ 1
     v(1_5) c_u_rampas_subida(1_6)_ -50
     v(1_5) c_u_rampas_bajada(1_5)_ -30
     v(1_5) c_u_tiempo_min_encendido(1_5)_ -1
     v(1_5) c_u_tiempo_min_apagado(1_5)_ 1
     v(1_5) c_u_limite_gen_uno(1_5)_ 80
     v(1_5) c_u_Limite_gen_tres(1_5)_ -300
     v(1_5) c_u_limite_arranque(1_6)_ -50
     v(1_5) c_u_limite_apagado(1_5)_ -300
     v(1_6) c_e_logical_rule(1_6)_ -1
     v(1_6) c_u_rampas_bajada(1_6)_ -30
     v(1_6) c_u_tiempo_min_encendido(1_6)_ -1
     v(1_6) c_u_tiempo_min_apagado(1_6)_ 1
     v(1_6) c_u_limite_gen_uno(1_6)_ 80
     v(1_6) c_u_Limite_gen_tres(1_6)_ -300
     v(2_1) c_e_logical_rule(2_1)_ -1
     v(2_1) c_e_logical_rule(2_2)_ 1
     v(2_1) c_u_rampas_subida(2_2)_ -60
     v(2_1) c_u_rampas_bajada(2_1)_ -40
     v(2_1) c_l_tiempo_min_encendido(2_1)_ 1
     v(2_1) c_u_tiempo_min_apagado(2_1)_ 1
     v(2_1) c_u_limite_gen_uno(2_1)_ 50
     v(2_1) c_u_Limite_gen_tres(2_1)_ -200
     v(2_1) c_u_limite_arranque(2_2)_ -60
     v(2_1) c_u_limite_apagado(2_1)_ -200
     v(2_2) c_e_logical_rule(2_2)_ -1
     v(2_2) c_e_logical_rule(2_3)_ 1
     v(2_2) c_u_rampas_subida(2_3)_ -60
     v(2_2) c_u_rampas_bajada(2_2)_ -40
     v(2_2) c_u_tiempo_min_encendido(2_2)_ -1
     v(2_2) c_u_tiempo_min_apagado(2_2)_ 1
     v(2_2) c_u_limite_gen_uno(2_2)_ 50
     v(2_2) c_u_Limite_gen_tres(2_2)_ -200
     v(2_2) c_u_limite_arranque(2_3)_ -60
     v(2_2) c_u_limite_apagado(2_2)_ -200
     v(2_3) c_e_logical_rule(2_3)_ -1
     v(2_3) c_e_logical_rule(2_4)_ 1
     v(2_3) c_u_rampas_subida(2_4)_ -60
     v(2_3) c_u_rampas_bajada(2_3)_ -40
     v(2_3) c_u_tiempo_min_encendido(2_3)_ -1
     v(2_3) c_u_tiempo_min_apagado(2_3)_ 1
     v(2_3) c_u_limite_gen_uno(2_3)_ 50
     v(2_3) c_u_Limite_gen_tres(2_3)_ -200
     v(2_3) c_u_limite_arranque(2_4)_ -60
     v(2_3) c_u_limite_apagado(2_3)_ -200
     v(2_4) c_e_logical_rule(2_4)_ -1
     v(2_4) c_e_logical_rule(2_5)_ 1
     v(2_4) c_u_rampas_subida(2_5)_ -60
     v(2_4) c_u_rampas_bajada(2_4)_ -40
     v(2_4) c_u_tiempo_min_encendido(2_4)_ -1
     v(2_4) c_u_tiempo_min_apagado(2_4)_ 1
     v(2_4) c_u_limite_gen_uno(2_4)_ 50
     v(2_4) c_u_Limite_gen_tres(2_4)_ -200
     v(2_4) c_u_limite_arranque(2_5)_ -60
     v(2_4) c_u_limite_apagado(2_4)_ -200
     v(2_5) c_e_logical_rule(2_5)_ -1
     v(2_5) c_e_logical_rule(2_6)_ 1
     v(2_5) c_u_rampas_subida(2_6)_ -60
     v(2_5) c_u_rampas_bajada(2_5)_ -40
     v(2_5) c_u_tiempo_min_encendido(2_5)_ -1
     v(2_5) c_u_tiempo_min_apagado(2_5)_ 1
     v(2_5) c_u_limite_gen_uno(2_5)_ 50
     v(2_5) c_u_Limite_gen_tres(2_5)_ -200
     v(2_5) c_u_limite_arranque(2_6)_ -60
     v(2_5) c_u_limite_apagado(2_5)_ -200
     v(2_6) c_e_logical_rule(2_6)_ -1
     v(2_6) c_u_rampas_bajada(2_6)_ -40
     v(2_6) c_u_tiempo_min_encendido(2_6)_ -1
     v(2_6) c_u_tiempo_min_apagado(2_6)_ 1
     v(2_6) c_u_limite_gen_uno(2_6)_ 50
     v(2_6) c_u_Limite_gen_tres(2_6)_ -200
     v(3_1) c_e_logical_rule(3_1)_ -1
     v(3_1) c_e_logical_rule(3_2)_ 1
     v(3_1) c_u_rampas_subida(3_2)_ -70
     v(3_1) c_u_rampas_bajada(3_1)_ -50
     v(3_1) c_l_tiempo_min_encendido(3_1)_ 1
     v(3_1) c_u_tiempo_min_apagado(3_1)_ 1
     v(3_1) c_u_limite_gen_uno(3_1)_ 30
     v(3_1) c_u_Limite_gen_tres(3_1)_ -100
     v(3_1) c_u_limite_arranque(3_2)_ -70
     v(3_1) c_u_limite_apagado(3_1)_ -100
     v(3_2) c_e_logical_rule(3_2)_ -1
     v(3_2) c_e_logical_rule(3_3)_ 1
     v(3_2) c_u_rampas_subida(3_3)_ -70
     v(3_2) c_u_rampas_bajada(3_2)_ -50
     v(3_2) c_l_tiempo_min_encendido(3_2)_ 1
     v(3_2) c_u_tiempo_min_apagado(3_2)_ 1
     v(3_2) c_u_limite_gen_uno(3_2)_ 30
     v(3_2) c_u_Limite_gen_tres(3_2)_ -100
     v(3_2) c_u_limite_arranque(3_3)_ -70
     v(3_2) c_u_limite_apagado(3_2)_ -100
     v(3_3) c_e_logical_rule(3_3)_ -1
     v(3_3) c_e_logical_rule(3_4)_ 1
     v(3_3) c_u_rampas_subida(3_4)_ -70
     v(3_3) c_u_rampas_bajada(3_3)_ -50
     v(3_3) c_l_tiempo_min_encendido(3_3)_ 1
     v(3_3) c_u_tiempo_min_apagado(3_3)_ 1
     v(3_3) c_u_limite_gen_uno(3_3)_ 30
     v(3_3) c_u_Limite_gen_tres(3_3)_ -100
     v(3_3) c_u_limite_arranque(3_4)_ -70
     v(3_3) c_u_limite_apagado(3_3)_ -100
     v(3_4) c_e_logical_rule(3_4)_ -1
     v(3_4) c_e_logical_rule(3_5)_ 1
     v(3_4) c_u_rampas_subida(3_5)_ -70
     v(3_4) c_u_rampas_bajada(3_4)_ -50
     v(3_4) c_l_tiempo_min_encendido(3_4)_ 1
     v(3_4) c_u_tiempo_min_apagado(3_4)_ 1
     v(3_4) c_u_limite_gen_uno(3_4)_ 30
     v(3_4) c_u_Limite_gen_tres(3_4)_ -100
     v(3_4) c_u_limite_arranque(3_5)_ -70
     v(3_4) c_u_limite_apagado(3_4)_ -100
     v(3_5) c_e_logical_rule(3_5)_ -1
     v(3_5) c_e_logical_rule(3_6)_ 1
     v(3_5) c_u_rampas_subida(3_6)_ -70
     v(3_5) c_u_rampas_bajada(3_5)_ -50
     v(3_5) c_l_tiempo_min_encendido(3_5)_ 1
     v(3_5) c_u_tiempo_min_apagado(3_5)_ 1
     v(3_5) c_u_limite_gen_uno(3_5)_ 30
     v(3_5) c_u_Limite_gen_tres(3_5)_ -100
     v(3_5) c_u_limite_arranque(3_6)_ -70
     v(3_5) c_u_limite_apagado(3_5)_ -100
     v(3_6) c_e_logical_rule(3_6)_ -1
     v(3_6) c_u_rampas_bajada(3_6)_ -50
     v(3_6) c_l_tiempo_min_encendido(3_6)_ 1
     v(3_6) c_u_tiempo_min_apagado(3_6)_ 1
     v(3_6) c_u_limite_gen_uno(3_6)_ 30
     v(3_6) c_u_Limite_gen_tres(3_6)_ -100
     y(1_1) obj 800
     y(1_1) c_e_logical_rule(1_1)_ 1
     y(1_1) c_u_rampas_subida(1_1)_ -100
     y(1_1) c_u_tiempo_min_encendido(1_3)_ 1
     y(1_1) c_u_limite_arranque(1_1)_ -100
     y(1_2) obj 800
     y(1_2) c_e_logical_rule(1_2)_ 1
     y(1_2) c_u_rampas_subida(1_2)_ -100
     y(1_2) c_u_tiempo_min_encendido(1_3)_ 1
     y(1_2) c_u_tiempo_min_encendido(1_4)_ 1
     y(1_2) c_u_limite_arranque(1_2)_ -100
     y(1_3) obj 800
     y(1_3) c_e_logical_rule(1_3)_ 1
     y(1_3) c_u_rampas_subida(1_3)_ -100
     y(1_3) c_u_tiempo_min_encendido(1_4)_ 1
     y(1_3) c_u_tiempo_min_encendido(1_5)_ 1
     y(1_3) c_u_limite_arranque(1_3)_ -100
     y(1_4) obj 800
     y(1_4) c_e_logical_rule(1_4)_ 1
     y(1_4) c_u_rampas_subida(1_4)_ -100
     y(1_4) c_u_tiempo_min_encendido(1_5)_ 1
     y(1_4) c_u_tiempo_min_encendido(1_6)_ 1
     y(1_4) c_u_limite_arranque(1_4)_ -100
     y(1_5) obj 800
     y(1_5) c_e_logical_rule(1_5)_ 1
     y(1_5) c_u_rampas_subida(1_5)_ -100
     y(1_5) c_u_tiempo_min_encendido(1_6)_ 1
     y(1_5) c_u_limite_arranque(1_5)_ -100
     y(1_6) obj 800
     y(1_6) c_e_logical_rule(1_6)_ 1
     y(1_6) c_u_rampas_subida(1_6)_ -100
     y(1_6) c_u_limite_arranque(1_6)_ -100
     y(2_1) obj 500
     y(2_1) c_e_logical_rule(2_1)_ 1
     y(2_1) c_u_rampas_subida(2_1)_ -70
     y(2_1) c_u_tiempo_min_encendido(2_2)_ 1
     y(2_1) c_u_limite_arranque(2_1)_ -70
     y(2_2) obj 500
     y(2_2) c_e_logical_rule(2_2)_ 1
     y(2_2) c_u_rampas_subida(2_2)_ -70
     y(2_2) c_u_tiempo_min_encendido(2_3)_ 1
     y(2_2) c_u_limite_arranque(2_2)_ -70
     y(2_3) obj 500
     y(2_3) c_e_logical_rule(2_3)_ 1
     y(2_3) c_u_rampas_subida(2_3)_ -70
     y(2_3) c_u_tiempo_min_encendido(2_4)_ 1
     y(2_3) c_u_limite_arranque(2_3)_ -70
     y(2_4) obj 500
     y(2_4) c_e_logical_rule(2_4)_ 1
     y(2_4) c_u_rampas_subida(2_4)_ -70
     y(2_4) c_u_tiempo_min_encendido(2_5)_ 1
     y(2_4) c_u_limite_arranque(2_4)_ -70
     y(2_5) obj 500
     y(2_5) c_e_logical_rule(2_5)_ 1
     y(2_5) c_u_rampas_subida(2_5)_ -70
     y(2_5) c_u_tiempo_min_encendido(2_6)_ 1
     y(2_5) c_u_limite_arranque(2_5)_ -70
     y(2_6) obj 500
     y(2_6) c_e_logical_rule(2_6)_ 1
     y(2_6) c_u_rampas_subida(2_6)_ -70
     y(2_6) c_u_limite_arranque(2_6)_ -70
     y(3_1) obj 250
     y(3_1) c_e_logical_rule(3_1)_ 1
     y(3_1) c_u_rampas_subida(3_1)_ -40
     y(3_1) c_u_limite_arranque(3_1)_ -40
     y(3_2) obj 250
     y(3_2) c_e_logical_rule(3_2)_ 1
     y(3_2) c_u_rampas_subida(3_2)_ -40
     y(3_2) c_u_limite_arranque(3_2)_ -40
     y(3_3) obj 250
     y(3_3) c_e_logical_rule(3_3)_ 1
     y(3_3) c_u_rampas_subida(3_3)_ -40
     y(3_3) c_u_limite_arranque(3_3)_ -40
     y(3_4) obj 250
     y(3_4) c_e_logical_rule(3_4)_ 1
     y(3_4) c_u_rampas_subida(3_4)_ -40
     y(3_4) c_u_limite_arranque(3_4)_ -40
     y(3_5) obj 250
     y(3_5) c_e_logical_rule(3_5)_ 1
     y(3_5) c_u_rampas_subida(3_5)_ -40
     y(3_5) c_u_limite_arranque(3_5)_ -40
     y(3_6) obj 250
     y(3_6) c_e_logical_rule(3_6)_ 1
     y(3_6) c_u_rampas_subida(3_6)_ -40
     y(3_6) c_u_limite_arranque(3_6)_ -40
     z(1_1) c_e_logical_rule(1_1)_ -1
     z(1_1) c_u_rampas_bajada(1_1)_ -80
     z(1_1) c_u_tiempo_min_apagado(1_2)_ 1
     z(1_2) c_e_logical_rule(1_2)_ -1
     z(1_2) c_u_rampas_bajada(1_2)_ -80
     z(1_2) c_u_tiempo_min_apagado(1_3)_ 1
     z(1_2) c_u_limite_apagado(1_1)_ 220
     z(1_3) c_e_logical_rule(1_3)_ -1
     z(1_3) c_u_rampas_bajada(1_3)_ -80
     z(1_3) c_u_tiempo_min_apagado(1_4)_ 1
     z(1_3) c_u_limite_apagado(1_2)_ 220
     z(1_4) c_e_logical_rule(1_4)_ -1
     z(1_4) c_u_rampas_bajada(1_4)_ -80
     z(1_4) c_u_tiempo_min_apagado(1_5)_ 1
     z(1_4) c_u_limite_apagado(1_3)_ 220
     z(1_5) c_e_logical_rule(1_5)_ -1
     z(1_5) c_u_rampas_bajada(1_5)_ -80
     z(1_5) c_u_tiempo_min_apagado(1_6)_ 1
     z(1_5) c_u_limite_apagado(1_4)_ 220
     z(1_6) c_e_logical_rule(1_6)_ -1
     z(1_6) c_u_rampas_bajada(1_6)_ -80
     z(1_6) c_u_limite_apagado(1_5)_ 220
     z(2_1) c_e_logical_rule(2_1)_ -1
     z(2_1) c_u_rampas_bajada(2_1)_ -50
     z(2_1) c_u_tiempo_min_apagado(2_2)_ 1
     z(2_2) c_e_logical_rule(2_2)_ -1
     z(2_2) c_u_rampas_bajada(2_2)_ -50
     z(2_2) c_u_tiempo_min_apagado(2_3)_ 1
     z(2_2) c_u_limite_apagado(2_1)_ 150
     z(2_3) c_e_logical_rule(2_3)_ -1
     z(2_3) c_u_rampas_bajada(2_3)_ -50
     z(2_3) c_u_tiempo_min_apagado(2_4)_ 1
     z(2_3) c_u_limite_apagado(2_2)_ 150
     z(2_4) c_e_logical_rule(2_4)_ -1
     z(2_4) c_u_rampas_bajada(2_4)_ -50
     z(2_4) c_u_tiempo_min_apagado(2_5)_ 1
     z(2_4) c_u_limite_apagado(2_3)_ 150
     z(2_5) c_e_logical_rule(2_5)_ -1
     z(2_5) c_u_rampas_bajada(2_5)_ -50
     z(2_5) c_u_tiempo_min_apagado(2_6)_ 1
     z(2_5) c_u_limite_apagado(2_4)_ 150
     z(2_6) c_e_logical_rule(2_6)_ -1
     z(2_6) c_u_rampas_bajada(2_6)_ -50
     z(2_6) c_u_limite_apagado(2_5)_ 150
     z(3_1) c_e_logical_rule(3_1)_ -1
     z(3_1) c_u_rampas_bajada(3_1)_ -30
     z(3_1) c_u_tiempo_min_apagado(3_2)_ 1
     z(3_2) c_e_logical_rule(3_2)_ -1
     z(3_2) c_u_rampas_bajada(3_2)_ -30
     z(3_2) c_u_tiempo_min_apagado(3_3)_ 1
     z(3_2) c_u_limite_apagado(3_1)_ 70
     z(3_3) c_e_logical_rule(3_3)_ -1
     z(3_3) c_u_rampas_bajada(3_3)_ -30
     z(3_3) c_u_tiempo_min_apagado(3_4)_ 1
     z(3_3) c_u_limite_apagado(3_2)_ 70
     z(3_4) c_e_logical_rule(3_4)_ -1
     z(3_4) c_u_rampas_bajada(3_4)_ -30
     z(3_4) c_u_tiempo_min_apagado(3_5)_ 1
     z(3_4) c_u_limite_apagado(3_3)_ 70
     z(3_5) c_e_logical_rule(3_5)_ -1
     z(3_5) c_u_rampas_bajada(3_5)_ -30
     z(3_5) c_u_tiempo_min_apagado(3_6)_ 1
     z(3_5) c_u_limite_apagado(3_4)_ 70
     z(3_6) c_e_logical_rule(3_6)_ -1
     z(3_6) c_u_rampas_bajada(3_6)_ -30
     z(3_6) c_u_limite_apagado(3_5)_ 70
RHS
     RHS c_e_demanda(1)_ 240
     RHS c_e_demanda(2)_ 250
     RHS c_e_demanda(3)_ 200
     RHS c_e_demanda(4)_ 170
     RHS c_e_demanda(5)_ 230
     RHS c_e_demanda(6)_ 190
     RHS c_l_demanda_reserva(1)_ 240
     RHS c_l_demanda_reserva(2)_ 260
     RHS c_l_demanda_reserva(3)_ 210
     RHS c_l_demanda_reserva(4)_ 180
     RHS c_l_demanda_reserva(5)_ 240
     RHS c_l_demanda_reserva(6)_ 200
     RHS c_e_logical_rule(1_1)_ -1
     RHS c_e_logical_rule(1_2)_ 0
     RHS c_e_logical_rule(1_3)_ 0
     RHS c_e_logical_rule(1_4)_ 0
     RHS c_e_logical_rule(1_5)_ 0
     RHS c_e_logical_rule(1_6)_ 0
     RHS c_e_logical_rule(2_1)_ 0
     RHS c_e_logical_rule(2_2)_ 0
     RHS c_e_logical_rule(2_3)_ 0
     RHS c_e_logical_rule(2_4)_ 0
     RHS c_e_logical_rule(2_5)_ 0
     RHS c_e_logical_rule(2_6)_ 0
     RHS c_e_logical_rule(3_1)_ 0
     RHS c_e_logical_rule(3_2)_ 0
     RHS c_e_logical_rule(3_3)_ 0
     RHS c_e_logical_rule(3_4)_ 0
     RHS c_e_logical_rule(3_5)_ 0
     RHS c_e_logical_rule(3_6)_ 0
     RHS c_u_rampas_subida(1_1)_ 170
     RHS c_u_rampas_subida(1_2)_ 0
     RHS c_u_rampas_subida(1_3)_ 0
     RHS c_u_rampas_subida(1_4)_ 0
     RHS c_u_rampas_subida(1_5)_ 0
     RHS c_u_rampas_subida(1_6)_ 0
     RHS c_u_rampas_subida(2_1)_ 0
     RHS c_u_rampas_subida(2_2)_ 0
     RHS c_u_rampas_subida(2_3)_ 0
     RHS c_u_rampas_subida(2_4)_ 0
     RHS c_u_rampas_subida(2_5)_ 0
     RHS c_u_rampas_subida(2_6)_ 0
     RHS c_u_rampas_subida(3_1)_ 0
     RHS c_u_rampas_subida(3_2)_ 0
     RHS c_u_rampas_subida(3_3)_ 0
     RHS c_u_rampas_subida(3_4)_ 0
     RHS c_u_rampas_subida(3_5)_ 0
     RHS c_u_rampas_subida(3_6)_ 0
     RHS c_u_rampas_bajada(1_1)_ -120
     RHS c_u_rampas_bajada(1_2)_ 0
     RHS c_u_rampas_bajada(1_3)_ 0
     RHS c_u_rampas_bajada(1_4)_ 0
     RHS c_u_rampas_bajada(1_5)_ 0
     RHS c_u_rampas_bajada(1_6)_ 0
     RHS c_u_rampas_bajada(2_1)_ 0
     RHS c_u_rampas_bajada(2_2)_ 0
     RHS c_u_rampas_bajada(2_3)_ 0
     RHS c_u_rampas_bajada(2_4)_ 0
     RHS c_u_rampas_bajada(2_5)_ 0
     RHS c_u_rampas_bajada(2_6)_ 0
     RHS c_u_rampas_bajada(3_1)_ 0
     RHS c_u_rampas_bajada(3_2)_ 0
     RHS c_u_rampas_bajada(3_3)_ 0
     RHS c_u_rampas_bajada(3_4)_ 0
     RHS c_u_rampas_bajada(3_5)_ 0
     RHS c_u_rampas_bajada(3_6)_ 0
     RHS c_u_tiempo_min_encendido(1_3)_ 0
     RHS c_u_tiempo_min_encendido(1_4)_ 0
     RHS c_u_tiempo_min_encendido(1_5)_ 0
     RHS c_u_tiempo_min_encendido(1_6)_ 0
     RHS c_l_tiempo_min_encendido(2_1)_ 0
     RHS c_u_tiempo_min_encendido(2_2)_ 0
     RHS c_u_tiempo_min_encendido(2_3)_ 0
     RHS c_u_tiempo_min_encendido(2_4)_ 0
     RHS c_u_tiempo_min_encendido(2_5)_ 0
     RHS c_u_tiempo_min_encendido(2_6)_ 0
     RHS c_l_tiempo_min_encendido(3_1)_ 0
     RHS c_l_tiempo_min_encendido(3_2)_ 0
     RHS c_l_tiempo_min_encendido(3_3)_ 0
     RHS c_l_tiempo_min_encendido(3_4)_ 0
     RHS c_l_tiempo_min_encendido(3_5)_ 0
     RHS c_l_tiempo_min_encendido(3_6)_ 0
     RHS c_u_tiempo_min_apagado(1_1)_ 1
     RHS c_u_tiempo_min_apagado(1_2)_ 1
     RHS c_u_tiempo_min_apagado(1_3)_ 1
     RHS c_u_tiempo_min_apagado(1_4)_ 1
     RHS c_u_tiempo_min_apagado(1_5)_ 1
     RHS c_u_tiempo_min_apagado(1_6)_ 1
     RHS c_u_tiempo_min_apagado(2_1)_ 1
     RHS c_u_tiempo_min_apagado(2_2)_ 1
     RHS c_u_tiempo_min_apagado(2_3)_ 1
     RHS c_u_tiempo_min_apagado(2_4)_ 1
     RHS c_u_tiempo_min_apagado(2_5)_ 1
     RHS c_u_tiempo_min_apagado(2_6)_ 1
     RHS c_u_tiempo_min_apagado(3_1)_ 1
     RHS c_u_tiempo_min_apagado(3_2)_ 1
     RHS c_u_tiempo_min_apagado(3_3)_ 1
     RHS c_u_tiempo_min_apagado(3_4)_ 1
     RHS c_u_tiempo_min_apagado(3_5)_ 1
     RHS c_u_tiempo_min_apagado(3_6)_ 1
     RHS c_u_limite_gen_uno(1_1)_ 0
     RHS c_u_limite_gen_uno(1_2)_ 0
     RHS c_u_limite_gen_uno(1_3)_ 0
     RHS c_u_limite_gen_uno(1_4)_ 0
     RHS c_u_limite_gen_uno(1_5)_ 0
     RHS c_u_limite_gen_uno(1_6)_ 0
     RHS c_u_limite_gen_uno(2_1)_ 0
     RHS c_u_limite_gen_uno(2_2)_ 0
     RHS c_u_limite_gen_uno(2_3)_ 0
     RHS c_u_limite_gen_uno(2_4)_ 0
     RHS c_u_limite_gen_uno(2_5)_ 0
     RHS c_u_limite_gen_uno(2_6)_ 0
     RHS c_u_limite_gen_uno(3_1)_ 0
     RHS c_u_limite_gen_uno(3_2)_ 0
     RHS c_u_limite_gen_uno(3_3)_ 0
     RHS c_u_limite_gen_uno(3_4)_ 0
     RHS c_u_limite_gen_uno(3_5)_ 0
     RHS c_u_limite_gen_uno(3_6)_ 0
     RHS c_u_limite_gen_dos(1_1)_ 0
     RHS c_u_limite_gen_dos(1_2)_ 0
     RHS c_u_limite_gen_dos(1_3)_ 0
     RHS c_u_limite_gen_dos(1_4)_ 0
     RHS c_u_limite_gen_dos(1_5)_ 0
     RHS c_u_limite_gen_dos(1_6)_ 0
     RHS c_u_limite_gen_dos(2_1)_ 0
     RHS c_u_limite_gen_dos(2_2)_ 0
     RHS c_u_limite_gen_dos(2_3)_ 0
     RHS c_u_limite_gen_dos(2_4)_ 0
     RHS c_u_limite_gen_dos(2_5)_ 0
     RHS c_u_limite_gen_dos(2_6)_ 0
     RHS c_u_limite_gen_dos(3_1)_ 0
     RHS c_u_limite_gen_dos(3_2)_ 0
     RHS c_u_limite_gen_dos(3_3)_ 0
     RHS c_u_limite_gen_dos(3_4)_ 0
     RHS c_u_limite_gen_dos(3_5)_ 0
     RHS c_u_limite_gen_dos(3_6)_ 0
     RHS c_u_Limite_gen_tres(1_1)_ 0
     RHS c_u_Limite_gen_tres(1_2)_ 0
     RHS c_u_Limite_gen_tres(1_3)_ 0
     RHS c_u_Limite_gen_tres(1_4)_ 0
     RHS c_u_Limite_gen_tres(1_5)_ 0
     RHS c_u_Limite_gen_tres(1_6)_ 0
     RHS c_u_Limite_gen_tres(2_1)_ 0
     RHS c_u_Limite_gen_tres(2_2)_ 0
     RHS c_u_Limite_gen_tres(2_3)_ 0
     RHS c_u_Limite_gen_tres(2_4)_ 0
     RHS c_u_Limite_gen_tres(2_5)_ 0
     RHS c_u_Limite_gen_tres(2_6)_ 0
     RHS c_u_Limite_gen_tres(3_1)_ 0
     RHS c_u_Limite_gen_tres(3_2)_ 0
     RHS c_u_Limite_gen_tres(3_3)_ 0
     RHS c_u_Limite_gen_tres(3_4)_ 0
     RHS c_u_Limite_gen_tres(3_5)_ 0
     RHS c_u_Limite_gen_tres(3_6)_ 0
     RHS c_u_limite_arranque(1_1)_ 170
     RHS c_u_limite_arranque(1_2)_ 0
     RHS c_u_limite_arranque(1_3)_ 0
     RHS c_u_limite_arranque(1_4)_ 0
     RHS c_u_limite_arranque(1_5)_ 0
     RHS c_u_limite_arranque(1_6)_ 0
     RHS c_u_limite_arranque(2_1)_ 0
     RHS c_u_limite_arranque(2_2)_ 0
     RHS c_u_limite_arranque(2_3)_ 0
     RHS c_u_limite_arranque(2_4)_ 0
     RHS c_u_limite_arranque(2_5)_ 0
     RHS c_u_limite_arranque(2_6)_ 0
     RHS c_u_limite_arranque(3_1)_ 0
     RHS c_u_limite_arranque(3_2)_ 0
     RHS c_u_limite_arranque(3_3)_ 0
     RHS c_u_limite_arranque(3_4)_ 0
     RHS c_u_limite_arranque(3_5)_ 0
     RHS c_u_limite_arranque(3_6)_ 0
     RHS c_u_limite_apagado(1_1)_ 0
     RHS c_u_limite_apagado(1_2)_ 0
     RHS c_u_limite_apagado(1_3)_ 0
     RHS c_u_limite_apagado(1_4)_ 0
     RHS c_u_limite_apagado(1_5)_ 0
     RHS c_u_limite_apagado(2_1)_ 0
     RHS c_u_limite_apagado(2_2)_ 0
     RHS c_u_limite_apagado(2_3)_ 0
     RHS c_u_limite_apagado(2_4)_ 0
     RHS c_u_limite_apagado(2_5)_ 0
     RHS c_u_limite_apagado(3_1)_ 0
     RHS c_u_limite_apagado(3_2)_ 0
     RHS c_u_limite_apagado(3_3)_ 0
     RHS c_u_limite_apagado(3_4)_ 0
     RHS c_u_limite_apagado(3_5)_ 0
BOUNDS
 LO BOUND p(1_1) 0
 UP BOUND p(1_1) 99999
 LO BOUND p(1_2) 0
 UP BOUND p(1_2) 99999
 LO BOUND p(1_3) 0
 UP BOUND p(1_3) 99999
 LO BOUND p(1_4) 0
 UP BOUND p(1_4) 99999
 LO BOUND p(1_5) 0
 UP BOUND p(1_5) 99999
 LO BOUND p(1_6) 0
 UP BOUND p(1_6) 99999
 LO BOUND p(2_1) 0
 UP BOUND p(2_1) 99999
 LO BOUND p(2_2) 0
 UP BOUND p(2_2) 99999
 LO BOUND p(2_3) 0
 UP BOUND p(2_3) 99999
 LO BOUND p(2_4) 0
 UP BOUND p(2_4) 99999
 LO BOUND p(2_5) 0
 UP BOUND p(2_5) 99999
 LO BOUND p(2_6) 0
 UP BOUND p(2_6) 99999
 LO BOUND p(3_1) 0
 UP BOUND p(3_1) 99999
 LO BOUND p(3_2) 0
 UP BOUND p(3_2) 99999
 LO BOUND p(3_3) 0
 UP BOUND p(3_3) 99999
 LO BOUND p(3_4) 0
 UP BOUND p(3_4) 99999
 LO BOUND p(3_5) 0
 UP BOUND p(3_5) 99999
 LO BOUND p(3_6) 0
 UP BOUND p(3_6) 99999
 LO BOUND pb(1_1) 0
 UP BOUND pb(1_1) 99999
 LO BOUND pb(1_2) 0
 UP BOUND pb(1_2) 99999
 LO BOUND pb(1_3) 0
 UP BOUND pb(1_3) 99999
 LO BOUND pb(1_4) 0
 UP BOUND pb(1_4) 99999
 LO BOUND pb(1_5) 0
 UP BOUND pb(1_5) 99999
 LO BOUND pb(1_6) 0
 UP BOUND pb(1_6) 99999
 LO BOUND pb(2_1) 0
 UP BOUND pb(2_1) 99999
 LO BOUND pb(2_2) 0
 UP BOUND pb(2_2) 99999
 LO BOUND pb(2_3) 0
 UP BOUND pb(2_3) 99999
 LO BOUND pb(2_4) 0
 UP BOUND pb(2_4) 99999
 LO BOUND pb(2_5) 0
 UP BOUND pb(2_5) 99999
 LO BOUND pb(2_6) 0
 UP BOUND pb(2_6) 99999
 LO BOUND pb(3_1) 0
 UP BOUND pb(3_1) 99999
 LO BOUND pb(3_2) 0
 UP BOUND pb(3_2) 99999
 LO BOUND pb(3_3) 0
 UP BOUND pb(3_3) 99999
 LO BOUND pb(3_4) 0
 UP BOUND pb(3_4) 99999
 LO BOUND pb(3_5) 0
 UP BOUND pb(3_5) 99999
 LO BOUND pb(3_6) 0
 UP BOUND pb(3_6) 99999
 BV BOUND v(1_1)
 BV BOUND v(1_2)
 BV BOUND v(1_3)
 BV BOUND v(1_4)
 BV BOUND v(1_5)
 BV BOUND v(1_6)
 BV BOUND v(2_1)
 BV BOUND v(2_2)
 BV BOUND v(2_3)
 BV BOUND v(2_4)
 BV BOUND v(2_5)
 BV BOUND v(2_6)
 BV BOUND v(3_1)
 BV BOUND v(3_2)
 BV BOUND v(3_3)
 BV BOUND v(3_4)
 BV BOUND v(3_5)
 BV BOUND v(3_6)
 BV BOUND y(1_1)
 BV BOUND y(1_2)
 BV BOUND y(1_3)
 BV BOUND y(1_4)
 BV BOUND y(1_5)
 BV BOUND y(1_6)
 BV BOUND y(2_1)
 BV BOUND y(2_2)
 BV BOUND y(2_3)
 BV BOUND y(2_4)
 BV BOUND y(2_5)
 BV BOUND y(2_6)
 BV BOUND y(3_1)
 BV BOUND y(3_2)
 BV BOUND y(3_3)
 BV BOUND y(3_4)
 BV BOUND y(3_5)
 BV BOUND y(3_6)
 BV BOUND z(1_1)
 BV BOUND z(1_2)
 BV BOUND z(1_3)
 BV BOUND z(1_4)
 BV BOUND z(1_5)
 BV BOUND z(1_6)
 BV BOUND z(2_1)
 BV BOUND z(2_2)
 BV BOUND z(2_3)
 BV BOUND z(2_4)
 BV BOUND z(2_5)
 BV BOUND z(2_6)
 BV BOUND z(3_1)
 BV BOUND z(3_2)
 BV BOUND z(3_3)
 BV BOUND z(3_4)
 BV BOUND z(3_5)
 BV BOUND z(3_6)
ENDATA
